70
3 1 1
4 2 1
5 1 1
5 2 1
5 4 1
6 1 1
6 4 1
6 5 1
7 2 1
8 2 1
8 5 1
8 6 1
8 7 1
9 5 1
9 6 1
9 8 1
10 0 1
10 1 1
10 3 1
11 0 1
11 3 1
11 4 1
11 5 1
12 0 1
12 2 1
12 4 1
12 6 1
12 9 1
13 0 1
13 4 1
13 5 1
13 6 1
13 7 1
13 8 1
13 9 1
13 11 1
13 12 1
14 0 1
14 1 1
14 3 1
14 4 1
14 6 1
14 8 1
14 9 1
14 10 1
14 13 1
15 2 1
15 5 1
15 9 1
15 10 1
15 12 1
15 13 1
16 1 1
16 5 1
16 6 1
16 7 1
16 8 1
16 10 1
16 11 1
16 13 1
16 15 1
17 4 1
17 5 1
17 7 1
17 8 1
17 9 1
17 10 1
17 13 1
18 0 1
18 1 1
18 3 1
18 4 1
18 6 1
18 10 1
18 11 1
18 12 1
18 13 1
19 0 1
19 1 1
19 3 1
19 4 1
19 8 1
19 9 1
19 12 1
19 17 1
20 4 1
20 5 1
20 7 1
20 10 1
20 11 1
20 12 1
20 15 1
20 16 1
20 18 1
20 19 1
21 1 1
21 2 1
21 6 1
21 8 1
21 9 1
21 12 1
21 14 1
21 20 1
22 1 1
22 4 1
22 5 1
22 6 1
22 9 1
22 11 1
22 13 1
22 15 1
22 16 1
22 19 1
22 20 1
22 21 1
23 1 1
23 2 1
23 3 1
23 4 1
23 5 1
23 6 1
23 7 1
23 11 1
23 14 1
23 15 1
23 16 1
23 19 1
23 21 1
23 22 1
24 0 1
24 1 1
24 4 1
24 5 1
24 9 1
24 11 1
24 12 1
24 13 1
24 16 1
24 19 1
24 21 1
24 22 1
25 2 1
25 5 1
25 6 1
25 7 1
25 8 1
25 9 1
25 10 1
25 11 1
25 12 1
25 21 1
25 22 1
25 24 1
26 1 1
26 2 1
26 3 1
26 8 1
26 9 1
26 10 1
26 11 1
26 12 1
26 13 1
26 15 1
26 16 1
26 17 1
26 18 1
26 19 1
26 20 1
26 22 1
26 24 1
27 0 1
27 1 1
27 6 1
27 9 1
27 13 1
27 14 1
27 20 1
27 21 1
27 22 1
27 23 1
27 25 1
27 26 1
28 3 1
28 5 1
28 6 1
28 10 1
28 11 1
28 12 1
28 13 1
28 15 1
28 16 1
28 19 1
28 20 1
28 21 1
28 27 1
29 1 1
29 3 1
29 5 1
29 7 1
29 10 1
29 11 1
29 13 1
29 14 1
29 20 1
29 21 1
29 25 1
29 26 1
29 27 1
30 0 1
30 2 1
30 3 1
30 5 1
30 7 1
30 11 1
30 12 1
30 13 1
30 15 1
30 16 1
30 25 1
31 1 1
31 3 1
31 4 1
31 6 1
31 8 1
31 9 1
31 10 1
31 15 1
31 18 1
31 19 1
31 20 1
31 23 1
31 25 1
31 27 1
31 30 1
32 0 1
32 1 1
32 3 1
32 5 1
32 6 1
32 8 1
32 9 1
32 10 1
32 13 1
32 14 1
32 17 1
32 19 1
32 20 1
32 21 1
32 22 1
32 23 1
32 24 1
32 27 1
32 30 1
33 0 1
33 1 1
33 7 1
33 8 1
33 9 1
33 12 1
33 13 1
33 15 1
33 16 1
33 17 1
33 19 1
33 22 1
33 25 1
33 27 1
33 28 1
33 31 1
34 0 1
34 1 1
34 3 1
34 4 1
34 7 1
34 9 1
34 11 1
34 12 1
34 14 1
34 15 1
34 16 1
34 17 1
34 19 1
34 20 1
34 21 1
34 23 1
34 25 1
34 29 1
34 30 1
34 31 1
35 1 1
35 2 1
35 4 1
35 5 1
35 10 1
35 11 1
35 15 1
35 16 1
35 17 1
35 19 1
35 22 1
35 23 1
35 26 1
35 28 1
35 29 1
35 30 1
35 32 1
35 33 1
36 1 1
36 2 1
36 3 1
36 4 1
36 7 1
36 8 1
36 12 1
36 13 1
36 16 1
36 18 1
36 22 1
36 23 1
36 24 1
36 25 1
36 26 1
36 29 1
36 30 1
36 31 1
36 32 1
36 33 1
36 34 1
37 0 1
37 1 1
37 2 1
37 5 1
37 10 1
37 11 1
37 12 1
37 13 1
37 15 1
37 16 1
37 17 1
37 18 1
37 19 1
37 20 1
37 23 1
37 25 1
37 27 1
37 29 1
37 31 1
37 32 1
37 34 1
37 36 1
38 0 1
38 1 1
38 2 1
38 3 1
38 4 1
38 7 1
38 8 1
38 9 1
38 10 1
38 13 1
38 14 1
38 16 1
38 17 1
38 23 1
38 24 1
38 28 1
38 29 1
38 30 1
38 32 1
38 33 1
38 34 1
38 37 1
39 0 1
39 1 1
39 5 1
39 10 1
39 13 1
39 15 1
39 17 1
39 18 1
39 19 1
39 20 1
39 21 1
39 26 1
39 28 1
39 29 1
39 30 1
39 31 1
39 32 1
39 36 1
39 37 1
39 38 1
40 1 1
40 3 1
40 4 1
40 5 1
40 6 1
40 7 1
40 10 1
40 12 1
40 13 1
40 14 1
40 16 1
40 17 1
40 18 1
40 19 1
40 20 1
40 21 1
40 23 1
40 28 1
40 36 1
40 38 1
41 1 1
41 3 1
41 4 1
41 7 1
41 8 1
41 10 1
41 12 1
41 13 1
41 15 1
41 16 1
41 17 1
41 18 1
41 19 1
41 20 1
41 21 1
41 24 1
41 26 1
41 27 1
41 28 1
41 29 1
41 30 1
41 31 1
41 33 1
41 37 1
41 38 1
42 1 1
42 3 1
42 4 1
42 8 1
42 11 1
42 12 1
42 16 1
42 18 1
42 21 1
42 23 1
42 24 1
42 25 1
42 29 1
42 32 1
42 34 1
42 35 1
42 36 1
42 40 1
42 41 1
43 3 1
43 7 1
43 8 1
43 12 1
43 14 1
43 15 1
43 17 1
43 18 1
43 20 1
43 23 1
43 25 1
43 27 1
43 29 1
43 30 1
43 34 1
43 36 1
43 40 1
43 42 1
44 0 1
44 2 1
44 3 1
44 4 1
44 6 1
44 7 1
44 8 1
44 9 1
44 10 1
44 13 1
44 19 1
44 20 1
44 23 1
44 25 1
44 27 1
44 30 1
44 32 1
44 33 1
44 34 1
44 35 1
44 36 1
44 38 1
44 43 1
45 0 1
45 1 1
45 2 1
45 3 1
45 7 1
45 10 1
45 11 1
45 12 1
45 13 1
45 14 1
45 16 1
45 17 1
45 22 1
45 23 1
45 25 1
45 29 1
45 32 1
45 33 1
45 34 1
45 37 1
45 38 1
45 40 1
45 41 1
45 43 1
45 44 1
46 0 1
46 1 1
46 2 1
46 6 1
46 7 1
46 9 1
46 10 1
46 13 1
46 14 1
46 20 1
46 22 1
46 24 1
46 26 1
46 27 1
46 34 1
46 35 1
46 36 1
46 38 1
46 41 1
46 43 1
46 44 1
47 1 1
47 2 1
47 4 1
47 5 1
47 6 1
47 11 1
47 12 1
47 15 1
47 18 1
47 19 1
47 21 1
47 22 1
47 24 1
47 26 1
47 27 1
47 28 1
47 29 1
47 30 1
47 32 1
47 33 1
47 37 1
47 39 1
47 40 1
47 41 1
47 42 1
47 43 1
47 46 1
48 0 1
48 1 1
48 2 1
48 4 1
48 6 1
48 7 1
48 8 1
48 9 1
48 12 1
48 15 1
48 16 1
48 17 1
48 18 1
48 19 1
48 23 1
48 24 1
48 25 1
48 28 1
48 30 1
48 31 1
48 33 1
48 36 1
48 38 1
48 39 1
48 43 1
48 44 1
48 45 1
48 46 1
48 47 1
49 2 1
49 4 1
49 8 1
49 9 1
49 11 1
49 12 1
49 13 1
49 15 1
49 21 1
49 32 1
49 33 1
49 36 1
49 38 1
49 40 1
49 43 1
49 47 1
50 0 1
50 3 1
50 5 1
50 7 1
50 8 1
50 10 1
50 11 1
50 12 1
50 13 1
50 14 1
50 17 1
50 19 1
50 21 1
50 23 1
50 24 1
50 26 1
50 27 1
50 30 1
50 31 1
50 32 1
50 33 1
50 34 1
50 35 1
50 36 1
50 37 1
50 39 1
50 41 1
50 42 1
50 47 1
50 49 1
51 0 1
51 3 1
51 5 1
51 9 1
51 10 1
51 11 1
51 13 1
51 14 1
51 15 1
51 22 1
51 24 1
51 25 1
51 27 1
51 28 1
51 32 1
51 34 1
51 37 1
51 38 1
51 40 1
51 43 1
51 44 1
51 45 1
51 46 1
51 47 1
51 48 1
51 49 1
51 50 1
52 3 1
52 4 1
52 7 1
52 9 1
52 10 1
52 11 1
52 13 1
52 14 1
52 15 1
52 17 1
52 18 1
52 21 1
52 22 1
52 23 1
52 25 1
52 29 1
52 32 1
52 33 1
52 34 1
52 37 1
52 40 1
52 42 1
52 43 1
52 44 1
52 47 1
52 49 1
53 0 1
53 1 1
53 2 1
53 3 1
53 4 1
53 5 1
53 9 1
53 12 1
53 13 1
53 14 1
53 15 1
53 18 1
53 19 1
53 20 1
53 23 1
53 25 1
53 28 1
53 29 1
53 30 1
53 34 1
53 36 1
53 39 1
53 40 1
53 42 1
53 44 1
53 45 1
53 46 1
53 48 1
53 49 1
53 51 1
53 52 1
54 0 1
54 3 1
54 5 1
54 6 1
54 9 1
54 10 1
54 12 1
54 13 1
54 14 1
54 16 1
54 23 1
54 24 1
54 25 1
54 26 1
54 27 1
54 30 1
54 36 1
54 37 1
54 39 1
54 42 1
54 43 1
54 44 1
54 45 1
54 48 1
54 49 1
54 50 1
54 53 1
55 0 1
55 1 1
55 2 1
55 4 1
55 5 1
55 6 1
55 8 1
55 9 1
55 12 1
55 14 1
55 15 1
55 17 1
55 20 1
55 25 1
55 26 1
55 28 1
55 32 1
55 34 1
55 39 1
55 40 1
55 41 1
55 43 1
55 47 1
55 48 1
55 54 1
56 0 1
56 8 1
56 10 1
56 11 1
56 12 1
56 13 1
56 14 1
56 15 1
56 16 1
56 18 1
56 22 1
56 25 1
56 26 1
56 28 1
56 30 1
56 31 1
56 35 1
56 36 1
56 39 1
56 40 1
56 41 1
56 42 1
56 43 1
56 45 1
56 47 1
56 50 1
56 52 1
57 0 1
57 2 1
57 3 1
57 5 1
57 6 1
57 9 1
57 13 1
57 14 1
57 17 1
57 19 1
57 23 1
57 25 1
57 30 1
57 34 1
57 35 1
57 41 1
57 44 1
57 46 1
57 47 1
57 49 1
57 51 1
57 52 1
57 53 1
57 55 1
57 56 1
58 3 1
58 6 1
58 7 1
58 8 1
58 9 1
58 10 1
58 11 1
58 14 1
58 16 1
58 17 1
58 19 1
58 27 1
58 28 1
58 29 1
58 30 1
58 36 1
58 39 1
58 40 1
58 43 1
58 46 1
58 47 1
58 50 1
58 52 1
58 53 1
58 56 1
58 57 1
59 3 1
59 4 1
59 6 1
59 7 1
59 9 1
59 10 1
59 11 1
59 12 1
59 14 1
59 15 1
59 17 1
59 19 1
59 20 1
59 24 1
59 27 1
59 28 1
59 29 1
59 31 1
59 32 1
59 33 1
59 36 1
59 41 1
59 48 1
59 49 1
59 53 1
59 56 1
60 3 1
60 7 1
60 8 1
60 10 1
60 11 1
60 12 1
60 15 1
60 17 1
60 19 1
60 21 1
60 22 1
60 24 1
60 26 1
60 29 1
60 35 1
60 36 1
60 38 1
60 40 1
60 41 1
60 42 1
60 44 1
60 48 1
60 49 1
60 53 1
60 54 1
61 0 1
61 1 1
61 7 1
61 8 1
61 9 1
61 10 1
61 12 1
61 13 1
61 15 1
61 18 1
61 19 1
61 20 1
61 21 1
61 23 1
61 24 1
61 25 1
61 27 1
61 28 1
61 29 1
61 30 1
61 31 1
61 33 1
61 34 1
61 35 1
61 38 1
61 40 1
61 43 1
61 46 1
61 48 1
61 49 1
61 50 1
61 54 1
61 56 1
61 60 1
62 0 1
62 4 1
62 6 1
62 12 1
62 13 1
62 16 1
62 17 1
62 19 1
62 21 1
62 23 1
62 28 1
62 31 1
62 34 1
62 36 1
62 37 1
62 39 1
62 43 1
62 47 1
62 50 1
62 52 1
62 55 1
62 56 1
62 58 1
62 59 1
63 0 1
63 3 1
63 4 1
63 6 1
63 12 1
63 14 1
63 15 1
63 16 1
63 17 1
63 18 1
63 19 1
63 20 1
63 21 1
63 23 1
63 25 1
63 26 1
63 28 1
63 29 1
63 30 1
63 32 1
63 33 1
63 35 1
63 38 1
63 40 1
63 41 1
63 43 1
63 46 1
63 47 1
63 50 1
63 57 1
63 60 1
63 61 1
64 0 1
64 9 1
64 10 1
64 11 1
64 12 1
64 15 1
64 16 1
64 17 1
64 19 1
64 21 1
64 23 1
64 26 1
64 28 1
64 30 1
64 31 1
64 33 1
64 39 1
64 41 1
64 42 1
64 47 1
64 50 1
64 55 1
64 56 1
64 58 1
64 60 1
64 63 1
65 2 1
65 8 1
65 11 1
65 13 1
65 15 1
65 17 1
65 18 1
65 19 1
65 21 1
65 24 1
65 26 1
65 27 1
65 31 1
65 32 1
65 33 1
65 34 1
65 41 1
65 44 1
65 45 1
65 46 1
65 47 1
65 48 1
65 49 1
65 50 1
65 53 1
65 54 1
65 55 1
65 57 1
65 59 1
66 2 1
66 4 1
66 5 1
66 6 1
66 11 1
66 13 1
66 14 1
66 15 1
66 16 1
66 17 1
66 18 1
66 20 1
66 21 1
66 23 1
66 24 1
66 29 1
66 31 1
66 32 1
66 34 1
66 35 1
66 36 1
66 38 1
66 40 1
66 41 1
66 44 1
66 45 1
66 46 1
66 47 1
66 48 1
66 49 1
66 50 1
66 53 1
66 54 1
66 55 1
66 56 1
66 61 1
66 65 1
67 0 1
67 1 1
67 4 1
67 6 1
67 7 1
67 8 1
67 11 1
67 13 1
67 14 1
67 15 1
67 17 1
67 28 1
67 29 1
67 31 1
67 32 1
67 38 1
67 39 1
67 43 1
67 45 1
67 46 1
67 49 1
67 50 1
67 53 1
67 54 1
67 55 1
67 57 1
67 61 1
67 62 1
67 64 1
67 65 1
67 66 1
68 1 1
68 3 1
68 4 1
68 6 1
68 10 1
68 11 1
68 12 1
68 14 1
68 15 1
68 16 1
68 18 1
68 21 1
68 22 1
68 24 1
68 26 1
68 30 1
68 31 1
68 33 1
68 34 1
68 35 1
68 38 1
68 39 1
68 40 1
68 41 1
68 45 1
68 47 1
68 48 1
68 50 1
68 51 1
68 52 1
68 53 1
68 54 1
68 57 1
68 61 1
68 62 1
68 64 1
69 2 1
69 5 1
69 6 1
69 8 1
69 10 1
69 14 1
69 18 1
69 22 1
69 24 1
69 30 1
69 34 1
69 37 1
69 39 1
69 40 1
69 43 1
69 48 1
69 49 1
69 54 1
69 56 1
69 59 1
69 60 1
69 62 1
69 63 1
69 64 1
69 65 1
69 66 1
69 68 1
